p cnf 52 66
1 2 3 4 0
1 2 -3 7 0
1 -2 3 5 0
1 -2 -3 5 0
-1 2 3 6 0
-1 2 -3 5 0
8 9 10 11 1 2 3 34 0
8 9 10 11 1 2 -3 52 0
8 9 10 11 1 -2 3 47 0
8 9 10 11 1 -2 -3 23 0
8 9 10 11 -1 2 3 12 0
8 9 10 11 -1 2 -3 13 0
8 9 10 -11 1 2 3 35 0
8 9 10 -11 1 2 -3 36 0
8 9 10 -11 1 -2 3 14 0
8 9 10 -11 1 -2 -3 13 0
8 9 10 -11 -1 2 3 45 0
8 9 10 -11 -1 2 -3 15 0
8 9 -10 11 1 2 3 35 0
8 9 -10 11 1 2 -3 24 0
8 9 -10 11 1 -2 3 26 0
8 9 -10 11 1 -2 -3 26 0
8 9 -10 11 -1 2 3 48 0
8 9 -10 11 -1 2 -3 37 0
8 9 -10 -11 1 2 3 25 0
8 9 -10 -11 1 2 -3 16 0
8 9 -10 -11 1 -2 3 31 0
8 9 -10 -11 1 -2 -3 17 0
8 9 -10 -11 -1 2 3 38 0
8 9 -10 -11 -1 2 -3 39 0
8 -9 10 11 1 2 3 40 0
8 -9 10 11 1 2 -3 41 0
8 -9 10 11 1 -2 3 18 0
8 -9 10 11 1 -2 -3 47 0
8 -9 10 11 -1 2 3 19 0
8 -9 10 11 -1 2 -3 20 0
8 -9 10 -11 1 2 3 21 0
8 -9 10 -11 1 2 -3 49 0
8 -9 10 -11 1 -2 3 31 0
8 -9 10 -11 1 -2 -3 26 0
8 -9 10 -11 -1 2 3 27 0
8 -9 10 -11 -1 2 -3 13 0
8 -9 -10 11 1 2 3 50 0
8 -9 -10 11 1 2 -3 42 0
8 -9 -10 11 1 -2 3 18 0
8 -9 -10 11 1 -2 -3 18 0
8 -9 -10 11 -1 2 3 43 0
8 -9 -10 11 -1 2 -3 33 0
8 -9 -10 -11 1 2 3 28 0
8 -9 -10 -11 1 2 -3 49 0
8 -9 -10 -11 1 -2 3 17 0
8 -9 -10 -11 1 -2 -3 20 0
8 -9 -10 -11 -1 2 3 45 0
8 -9 -10 -11 -1 2 -3 14 0
-8 9 10 11 1 2 3 46 0
-8 9 10 11 1 2 -3 30 0
-8 9 10 11 1 -2 3 47 0
-8 9 10 11 1 -2 -3 13 0
-8 9 10 11 -1 2 3 27 0
-8 9 10 11 -1 2 -3 31 0
-8 9 10 -11 1 2 3 22 0
-8 9 10 -11 1 2 -3 29 0
-8 9 10 -11 1 -2 3 32 0
-8 9 10 -11 1 -2 -3 51 0
-8 9 10 -11 -1 2 3 44 0
-8 9 10 -11 -1 2 -3 33 0
